21
209
428
196
347
185
211
228
273
171
323
107
22
128
338
164
118
166
207
76
29
169
288
267
330
74
111
106
107
492
192
306
70
147
196
109
335
568
47
203
165
192
102
340
49
186
61
264
249
229
205
255
186
361
131
277
115
241
44
